<instance format="XCSP3" type="COP">
  <variables>
    <array id="fe" note="Variables pour les fréquences d'émission et de réception pour chaque station" size="[50]">
      <domain for="fe[0]"> 14 28 42 56 70 84 112 126 140 154 168 182 196 210 224 238 252 266 280 294 308 322 336 350 364 378 392 406 420 434 448 462 476 490 504 518 532 546 560 574 588 602 616 630 644 658 672 686 700 714 728 </domain>
      <domain for="fe[1]"> 14 28 56 70 84 98 112 126 140 154 168 182 196 210 224 238 252 280 294 308 336 350 364 378 392 406 420 434 448 462 476 490 504 518 532 546 560 574 588 602 616 630 644 658 672 686 700 714 728 </domain>
      <domain for="fe[2] fe[42..43] fe[47]"> 14 28 42 56 70 84 98 112 126 140 154 168 182 196 210 224 238 252 266 280 294 308 322 336 350 364 378 392 406 420 434 448 462 476 490 504 518 532 546 560 574 588 602 616 630 644 658 672 686 700 714 728 </domain>
      <domain for="fe[3]"> 14 28 42 56 70 84 112 140 154 168 196 210 224 238 252 266 280 322 336 350 364 378 392 406 434 448 462 476 490 504 518 532 546 588 602 616 630 644 658 686 700 728 </domain>
      <domain for="fe[4]"> 14 28 42 56 70 84 98 112 126 140 154 168 182 196 210 224 238 252 266 280 294 322 336 364 378 406 420 434 448 476 490 504 518 546 560 574 588 602 616 644 658 672 686 700 728 </domain>
      <domain for="fe[5]"> 28 56 84 98 126 140 154 168 182 196 210 224 238 252 266 280 294 308 322 336 350 364 378 392 406 420 434 448 462 476 490 504 518 532 546 560 588 602 630 644 658 672 686 700 728 </domain>
      <domain for="fe[6]"> 14 28 56 70 84 98 112 126 140 168 182 196 210 224 238 252 266 308 322 336 350 364 378 392 406 434 448 462 476 490 504 518 532 546 574 588 602 630 644 658 672 686 700 714 728 </domain>
      <domain for="fe[7]"> 14 28 42 56 70 84 98 112 126 140 154 168 182 196 210 224 238 252 266 280 308 322 336 350 364 378 392 406 420 434 448 462 476 490 504 532 546 560 574 588 602 616 630 644 658 672 686 700 714 728 </domain>
      <domain for="fe[8]"> 14 28 42 56 70 84 98 112 126 140 154 168 196 210 224 238 266 280 294 308 322 336 350 364 378 392 406 448 490 504 518 532 574 602 616 630 644 658 700 714 728 </domain>
      <domain for="fe[9]"> 14 28 56 70 84 98 126 140 154 168 182 196 210 238 252 280 294 308 322 350 364 392 406 420 434 462 504 518 532 546 560 574 588 602 616 630 644 658 672 686 700 714 728 </domain>
      <domain for="fe[10]"> 14 28 42 56 70 84 98 112 126 140 154 168 182 196 210 224 238 252 266 280 294 308 322 336 350 364 378 392 406 434 448 462 476 490 504 518 532 546 560 574 588 602 616 630 644 658 672 686 700 714 728 </domain>
      <domain for="fe[11]"> 14 28 42 56 70 84 98 112 126 140 154 168 182 196 210 224 238 252 280 294 308 322 336 350 364 378 392 406 420 434 448 462 476 490 504 518 532 560 574 588 602 616 630 644 658 672 686 700 728 </domain>
      <domain for="fe[12]"> 14 28 42 56 70 84 98 126 140 154 168 182 196 210 224 238 252 266 280 294 308 322 336 350 364 378 392 406 420 434 448 462 476 490 504 532 546 560 574 588 602 616 630 644 658 672 686 700 714 728 </domain>
      <domain for="fe[13]"> 14 28 42 56 70 84 98 112 126 154 168 182 196 210 224 238 252 266 280 294 308 322 350 364 378 392 406 420 434 448 462 476 490 504 518 532 546 560 574 588 602 616 630 644 658 672 686 700 728 </domain>
      <domain for="fe[14]"> 14 28 56 70 98 112 140 154 168 182 224 238 252 266 280 294 308 322 336 350 378 392 420 434 448 462 476 490 504 546 560 574 588 602 630 644 658 672 686 700 714 728 </domain>
      <domain for="fe[15]"> 28 42 56 84 98 112 126 140 168 182 196 210 224 238 266 294 308 322 350 364 378 392 406 434 462 504 518 532 546 560 574 588 602 630 644 658 672 686 700 714 </domain>
      <domain for="fe[16]"> 14 28 42 56 70 84 98 112 126 154 168 182 196 210 224 238 252 280 294 308 322 336 350 364 378 392 406 420 434 448 462 476 490 504 518 532 546 560 574 588 602 630 644 658 672 686 700 714 728 </domain>
      <domain for="fe[17]"> 14 28 42 56 70 84 98 112 126 140 154 168 182 196 210 224 238 252 266 280 294 308 322 336 350 364 378 392 420 434 448 462 476 490 504 518 532 546 560 574 588 616 630 644 658 672 686 714 728 </domain>
      <domain for="fe[18]"> 28 42 56 70 98 112 126 140 154 168 182 196 210 238 266 280 308 322 336 350 364 378 392 406 420 434 448 462 476 490 504 518 532 546 560 588 616 630 644 658 672 686 700 714 728 </domain>
      <domain for="fe[19]"> 14 28 42 56 70 84 112 126 140 154 168 182 196 210 238 266 280 294 308 350 364 378 392 406 420 434 448 462 476 490 518 532 546 560 574 588 602 616 644 658 672 686 700 714 728 </domain>
      <domain for="fe[20]"> 14 28 42 56 70 84 98 112 126 154 168 182 210 224 238 252 266 280 294 308 336 350 364 378 392 406 420 434 448 462 476 490 504 518 532 546 560 574 588 616 630 644 658 672 686 700 714 728 </domain>
      <domain for="fe[21]"> 14 28 56 70 84 98 112 126 154 168 182 196 210 252 266 280 294 308 322 336 364 378 392 406 420 434 448 462 476 490 504 518 532 546 588 602 616 630 644 658 686 700 714 728 </domain>
      <domain for="fe[22]"> 14 28 42 56 70 84 98 112 126 140 154 168 182 196 210 224 238 252 280 294 308 322 336 350 364 392 406 420 448 462 476 490 504 518 532 546 560 574 588 602 616 630 644 658 672 686 700 714 728 </domain>
      <domain for="fe[23]"> 14 28 42 56 70 84 112 126 154 168 182 196 210 224 238 252 266 280 294 308 322 336 350 378 392 406 420 448 476 490 504 518 532 546 574 588 616 630 658 672 714 728 </domain>
      <domain for="fe[24]"> 14 28 42 56 70 84 98 112 126 140 154 168 182 196 210 224 238 252 266 294 308 322 336 364 378 392 406 420 448 462 490 504 518 532 546 560 574 588 602 616 630 644 658 686 700 714 728 </domain>
      <domain for="fe[25]"> 14 28 56 70 84 98 112 126 140 154 168 182 196 210 224 238 252 266 280 294 308 322 336 350 364 378 392 406 420 434 448 462 476 490 504 518 532 560 574 588 602 616 630 644 658 672 700 714 728 </domain>
      <domain for="fe[26]"> 14 28 42 70 84 98 112 126 140 154 168 182 196 210 224 238 252 266 280 294 308 322 336 350 364 378 392 406 420 434 448 462 476 490 504 518 532 546 560 574 588 602 616 630 644 658 672 686 700 714 728 </domain>
      <domain for="fe[27]"> 14 28 42 56 70 84 98 112 126 140 154 168 182 210 224 238 252 266 280 294 308 322 350 364 378 392 406 420 434 448 462 476 490 504 518 574 588 602 616 630 644 658 672 686 700 714 728 </domain>
      <domain for="fe[28]"> 14 28 42 56 70 84 98 112 126 140 154 168 182 196 210 224 238 252 266 280 294 308 336 350 364 378 392 406 420 434 448 462 476 490 504 518 532 546 560 574 588 602 616 630 644 658 672 686 700 714 728 </domain>
      <domain for="fe[29]"> 14 42 56 70 84 98 112 126 140 154 168 182 196 210 224 238 252 266 280 294 308 322 336 350 364 378 392 406 420 434 448 462 476 490 504 518 532 546 560 574 602 616 630 644 658 672 686 700 714 728 </domain>
      <domain for="fe[30]"> 14 28 70 84 98 126 140 182 196 210 238 252 266 280 294 308 322 336 350 378 392 406 434 448 462 504 518 532 546 560 588 602 616 630 644 672 686 700 714 728 </domain>
      <domain for="fe[31]"> 14 28 42 56 70 84 98 112 126 140 154 168 182 196 210 224 238 252 266 294 322 350 364 378 392 406 420 434 448 462 476 504 518 532 546 560 602 616 630 644 658 700 714 728 </domain>
      <domain for="fe[32]"> 14 28 42 56 70 84 98 112 126 140 154 168 182 196 210 224 238 252 266 280 294 308 322 336 350 364 378 392 420 434 448 476 490 504 518 532 546 560 574 588 602 616 630 644 658 672 686 700 714 728 </domain>
      <domain for="fe[33]"> 14 28 42 56 70 84 98 112 126 140 154 168 182 196 210 224 238 252 266 280 294 308 322 336 364 378 392 406 420 434 448 462 476 490 504 518 532 546 560 574 588 602 616 644 658 672 686 700 714 728 </domain>
      <domain for="fe[34]"> 28 42 56 84 98 126 140 168 182 196 210 224 238 252 266 280 294 336 350 364 378 392 406 420 434 448 476 490 504 518 532 546 560 588 602 616 630 644 658 700 714 728 </domain>
      <domain for="fe[35]"> 14 28 42 56 70 84 98 112 126 140 154 168 182 210 224 238 252 266 280 294 308 322 336 350 364 378 392 406 420 434 462 476 504 518 532 546 560 574 588 630 644 658 672 686 700 714 </domain>
      <domain for="fe[36]"> 14 42 56 70 84 98 126 140 154 168 182 196 210 224 238 252 266 280 336 350 364 378 392 406 434 448 462 476 490 504 518 532 546 574 588 616 644 658 686 700 714 </domain>
      <domain for="fe[37]"> 14 28 42 56 84 98 112 126 140 154 168 182 196 210 224 238 280 294 322 336 364 378 406 420 448 462 504 518 532 560 574 588 602 616 630 644 658 672 686 700 728 </domain>
      <domain for="fe[38]"> 14 28 42 70 84 98 112 126 140 154 168 182 196 210 224 252 266 280 294 308 322 336 350 364 378 392 406 420 434 448 462 476 490 504 518 532 546 574 644 658 672 686 714 </domain>
      <domain for="fe[39]"> 28 42 56 84 98 112 126 140 154 182 196 210 224 238 252 266 280 294 308 322 336 350 364 378 392 406 420 448 462 504 518 532 546 560 574 588 602 630 658 672 686 700 714 </domain>
      <domain for="fe[40]"> 14 28 42 56 70 84 98 112 126 140 154 168 182 196 210 224 238 252 266 280 294 308 322 336 350 364 378 392 406 420 434 448 462 476 490 504 518 532 546 560 574 588 602 616 644 658 672 686 700 714 728 </domain>
      <domain for="fe[41]"> 14 28 42 56 70 98 112 126 140 154 168 182 196 224 238 252 266 280 308 336 350 364 420 434 448 462 476 490 504 518 532 574 588 630 644 658 672 686 700 714 728 </domain>
      <domain for="fe[44]"> 70 84 140 154 168 182 196 210 224 238 252 266 294 308 322 336 350 364 378 392 406 434 448 462 476 490 504 532 546 560 574 588 602 616 630 658 672 686 700 714 728 </domain>
      <domain for="fe[45]"> 14 28 42 56 70 84 98 112 126 140 154 168 182 196 210 224 238 252 266 280 294 308 322 336 350 364 378 392 406 420 448 462 476 490 504 518 532 546 560 574 588 602 616 630 658 672 686 700 714 728 </domain>
      <domain for="fe[46]"> 14 28 42 56 70 84 98 112 126 140 154 168 182 196 210 224 238 252 266 280 308 322 350 364 378 392 406 420 434 448 462 476 490 504 518 532 546 560 574 588 602 616 630 644 658 672 686 700 714 728 </domain>
      <domain for="fe[48]"> 14 28 56 70 98 112 126 140 154 168 182 196 210 224 238 252 266 280 294 308 322 336 350 364 378 392 406 420 434 448 462 476 490 518 532 546 574 588 630 658 672 686 700 714 728 </domain>
      <domain for="fe[49]"> 28 42 70 98 112 126 140 154 182 196 210 224 238 252 280 308 322 336 350 364 378 392 406 434 462 476 490 504 518 532 546 560 574 588 602 616 630 644 658 672 686 700 714 728 </domain>
    </array>
    <array id="fr" size="[50]">
      <domain for="fr[0]"> 14 28 42 56 70 84 98 126 140 154 182 196 210 224 238 252 266 280 294 308 322 336 364 378 392 406 448 462 476 490 504 518 546 560 574 588 602 630 644 658 672 686 700 714 </domain>
      <domain for="fr[1]"> 14 28 42 56 70 98 112 126 140 154 168 182 196 238 252 266 280 294 308 322 350 364 406 420 434 462 490 504 518 532 560 574 602 630 644 658 672 686 700 714 728 </domain>
      <domain for="fr[2] fr[6] fr[9] fr[37] fr[46..47]"> 14 28 42 56 70 84 98 112 126 140 154 168 182 196 210 224 238 252 266 280 294 308 322 336 350 364 378 392 406 420 434 448 462 476 490 504 518 532 546 560 574 588 602 616 630 644 658 672 686 700 714 728 </domain>
      <domain for="fr[3]"> 14 42 56 84 98 112 154 168 182 196 210 224 238 252 266 280 294 308 322 350 364 378 392 406 420 434 448 462 476 490 504 518 532 546 560 574 616 630 644 658 686 700 714 728 </domain>
      <domain for="fr[4]"> 14 28 42 56 70 112 126 154 168 182 196 210 224 238 252 266 280 294 308 322 336 350 364 392 406 420 434 448 462 490 504 532 546 560 574 588 602 616 630 644 658 686 700 728 </domain>
      <domain for="fr[5]"> 14 28 42 56 70 84 98 112 126 140 154 168 196 210 224 238 252 266 280 294 308 322 336 350 364 378 392 406 434 448 462 476 504 518 546 560 574 616 630 644 658 672 686 700 714 728 </domain>
      <domain for="fr[7]"> 14 28 42 56 70 84 98 112 126 140 168 196 210 224 238 252 266 280 294 308 336 350 364 378 392 406 420 434 448 490 504 518 532 546 560 588 602 616 630 644 658 672 686 714 728 </domain>
      <domain for="fr[8]"> 14 28 42 56 70 84 98 112 126 140 154 168 182 196 210 224 238 252 266 280 294 308 322 336 364 378 392 406 420 434 448 462 476 490 504 532 546 560 574 588 602 616 630 644 658 672 686 700 714 728 </domain>
      <domain for="fr[10]"> 14 42 56 70 84 112 126 140 154 168 196 210 224 238 252 308 322 336 350 364 378 392 406 420 434 448 490 504 518 532 560 574 588 602 630 644 658 672 686 700 714 728 </domain>
      <domain for="fr[11]"> 14 28 42 56 84 98 126 140 154 168 182 196 224 238 252 266 280 294 308 322 350 364 378 392 434 448 462 504 518 532 560 588 602 644 658 672 686 700 714 728 </domain>
      <domain for="fr[12]"> 14 28 42 56 70 84 98 112 126 154 168 182 196 210 224 238 266 280 294 308 322 336 350 364 378 392 406 420 434 448 462 476 490 504 518 532 546 560 574 588 602 616 630 644 658 686 700 714 </domain>
      <domain for="fr[13]"> 14 28 42 56 70 84 126 140 154 168 182 196 210 224 238 252 266 280 308 322 336 350 364 378 392 406 420 434 448 462 476 490 504 518 532 546 560 574 588 602 616 630 644 658 672 686 700 </domain>
      <domain for="fr[14]"> 14 28 42 70 84 98 112 126 140 154 182 196 210 252 266 280 294 308 336 350 364 378 392 406 420 434 448 476 490 504 532 546 560 574 588 602 616 630 672 686 714 </domain>
      <domain for="fr[15]"> 14 28 42 56 70 84 98 112 126 140 168 182 196 210 224 238 252 280 294 308 322 336 350 364 378 392 406 420 434 448 462 476 504 518 532 546 560 574 588 602 616 630 644 658 672 686 700 714 728 </domain>
      <domain for="fr[16]"> 14 28 42 56 84 98 126 140 154 168 182 210 224 238 252 266 280 294 308 322 336 364 378 392 406 448 462 476 490 518 532 546 560 574 602 616 630 644 658 672 700 714 728 </domain>
      <domain for="fr[17]"> 14 28 42 56 70 84 98 112 126 154 168 196 210 224 238 252 280 294 308 322 336 350 364 378 392 406 420 434 448 462 476 490 518 546 560 574 588 602 616 630 644 658 672 686 700 714 728 </domain>
      <domain for="fr[18]"> 14 28 42 56 70 84 98 112 126 140 154 168 182 196 210 224 238 252 266 280 294 308 322 336 350 364 378 392 406 420 434 448 462 476 490 504 518 532 546 560 574 588 602 616 630 658 672 686 700 728 </domain>
      <domain for="fr[19]"> 14 28 42 70 84 98 126 140 154 168 182 210 238 252 280 294 308 322 336 350 364 378 392 406 420 434 448 462 476 490 504 532 546 560 574 588 616 630 644 658 672 686 700 714 </domain>
      <domain for="fr[20]"> 28 42 56 70 98 112 126 140 154 168 182 196 224 238 266 280 294 308 322 336 350 364 378 392 406 420 434 448 462 476 504 518 532 560 574 588 602 616 630 644 658 672 686 700 714 728 </domain>
      <domain for="fr[21]"> 14 28 42 56 84 98 112 126 168 182 196 210 224 238 252 280 308 322 336 350 364 378 392 406 420 434 448 462 476 504 518 532 546 574 588 602 616 630 644 658 672 686 700 </domain>
      <domain for="fr[22]"> 14 28 42 56 84 98 112 126 140 168 182 196 210 238 252 266 294 308 322 336 350 364 392 420 434 462 476 490 504 532 546 560 574 602 616 630 658 686 700 714 728 </domain>
      <domain for="fr[23]"> 14 28 42 56 70 84 98 112 126 140 154 168 182 196 210 224 238 252 266 280 294 308 322 336 350 364 378 392 406 420 434 448 462 476 490 518 532 546 560 574 588 602 616 630 644 658 686 700 714 728 </domain>
      <domain for="fr[24]"> 42 56 84 98 112 126 140 154 182 196 210 224 238 252 266 280 294 308 322 336 350 364 378 392 406 420 434 448 462 476 490 504 518 532 546 560 574 588 616 630 672 700 714 728 </domain>
      <domain for="fr[25]"> 14 42 56 70 84 98 112 126 140 168 182 196 210 224 238 252 266 280 294 322 336 364 406 420 434 448 462 490 504 518 532 546 560 574 602 616 630 644 658 672 686 714 </domain>
      <domain for="fr[26]"> 14 28 42 56 84 98 140 154 168 196 210 224 238 252 308 322 336 350 364 378 406 420 434 462 476 490 504 518 532 546 560 574 588 616 644 658 672 686 700 714 728 </domain>
      <domain for="fr[27]"> 14 28 42 56 70 98 112 140 168 182 196 224 238 266 280 294 322 336 350 364 378 392 406 434 448 462 476 490 504 518 532 546 560 574 588 602 616 630 644 658 672 686 700 714 728 </domain>
      <domain for="fr[28]"> 28 42 56 70 84 98 112 126 154 168 196 210 224 252 280 294 322 336 350 364 378 392 406 420 434 448 462 476 490 504 518 560 574 588 602 616 630 644 658 672 686 700 714 728 </domain>
      <domain for="fr[29]"> 14 28 42 56 70 84 98 126 140 154 182 196 224 238 252 280 294 308 322 336 350 364 378 392 406 448 462 476 490 518 532 546 560 574 602 616 644 658 672 686 700 714 728 </domain>
      <domain for="fr[30]"> 14 28 42 56 70 98 112 126 140 154 168 182 196 210 224 238 252 266 280 294 308 336 350 364 378 392 406 420 434 448 462 476 490 504 518 532 546 560 574 588 602 616 630 644 658 672 686 700 714 728 </domain>
      <domain for="fr[31]"> 14 28 42 56 70 84 98 112 126 140 168 182 196 210 224 238 280 294 308 322 336 350 378 392 406 434 448 462 476 490 504 532 546 574 588 616 630 644 658 686 700 714 728 </domain>
      <domain for="fr[32]"> 14 28 42 56 84 112 126 140 154 168 182 196 210 224 238 252 280 294 308 322 336 350 364 378 392 420 434 448 462 476 490 504 518 532 546 560 574 588 616 630 644 672 700 714 728 </domain>
      <domain for="fr[33]"> 14 28 42 70 84 98 112 126 140 154 168 182 196 210 224 238 252 336 350 378 392 420 434 448 476 490 504 518 532 560 574 588 602 616 644 658 672 686 700 714 728 </domain>
      <domain for="fr[34]"> 14 42 56 70 84 98 112 126 140 154 168 182 196 210 224 238 252 266 280 294 308 322 336 350 364 378 392 406 420 434 448 476 490 504 518 532 546 560 574 588 644 658 672 686 700 714 728 </domain>
      <domain for="fr[35]"> 14 28 42 56 70 84 98 112 126 140 154 168 182 196 210 224 238 252 266 280 294 308 322 336 350 364 378 392 406 420 434 448 462 476 490 504 518 532 546 560 574 588 602 616 630 644 658 672 686 700 728 </domain>
      <domain for="fr[36]"> 14 42 56 70 84 98 112 126 140 154 168 196 210 224 238 252 266 280 294 308 322 336 350 364 378 392 406 434 448 462 476 490 504 518 532 546 560 574 588 602 616 630 644 658 672 686 714 728 </domain>
      <domain for="fr[38]"> 14 28 42 56 70 84 98 112 126 140 154 168 182 196 210 224 238 252 266 280 294 308 322 336 350 364 378 392 406 420 434 448 490 504 518 532 546 560 574 588 602 616 630 644 658 672 700 714 728 </domain>
      <domain for="fr[39]"> 14 28 42 56 70 84 98 112 126 140 154 168 182 196 210 224 266 280 294 308 322 336 350 364 378 392 406 420 434 448 462 476 490 504 518 560 574 588 616 630 644 658 672 714 </domain>
      <domain for="fr[40]"> 14 28 42 56 70 84 98 112 126 140 154 168 182 196 210 224 238 252 266 280 294 308 322 336 350 364 378 392 406 420 434 448 462 476 490 504 518 532 546 560 574 588 602 616 630 644 658 686 700 714 728 </domain>
      <domain for="fr[41]"> 14 28 42 56 70 84 98 126 154 168 182 210 224 238 252 266 280 294 308 322 350 364 392 406 420 434 448 462 476 490 504 532 546 574 588 616 630 644 686 728 </domain>
      <domain for="fr[42]"> 14 28 42 56 70 84 98 112 126 140 168 182 196 210 224 238 266 280 294 308 322 336 350 364 378 392 406 420 434 448 462 476 490 504 518 532 546 560 574 588 602 616 630 644 658 672 686 700 714 728 </domain>
      <domain for="fr[43]"> 14 28 42 56 70 84 98 112 126 140 154 168 182 196 210 224 238 252 266 280 294 308 322 336 350 364 378 392 406 420 434 448 462 476 490 504 518 532 546 560 574 588 602 616 644 658 672 686 700 714 728 </domain>
      <domain for="fr[44]"> 14 28 42 70 84 98 126 154 168 182 196 224 238 252 266 294 308 336 350 378 392 406 420 448 462 476 490 504 518 532 546 560 574 602 616 630 658 672 686 714 728 </domain>
      <domain for="fr[45]"> 14 28 42 56 70 98 112 126 140 154 168 224 252 266 294 308 322 336 350 364 378 392 406 420 434 448 462 476 490 504 518 532 546 560 574 588 616 630 644 658 672 700 714 </domain>
      <domain for="fr[48]"> 28 42 56 70 84 98 112 126 154 168 182 196 210 224 252 266 280 294 308 322 336 350 364 378 392 406 434 448 462 476 490 504 518 532 546 560 574 588 602 616 630 644 658 672 686 700 714 728 </domain>
      <domain for="fr[49]"> 14 28 42 56 70 84 98 112 126 140 168 182 196 224 238 252 266 280 294 308 322 336 350 364 392 406 420 434 448 462 476 490 504 518 532 546 560 574 588 602 616 630 644 658 672 686 700 714 728 </domain>
    </array>
  </variables>
  <constraints>
    <intension> eq(dist(fe[0],fr[0]),154) </intension>
    <intension> eq(dist(fe[1],fr[1]),154) </intension>
    <intension> eq(dist(fe[2],fr[2]),154) </intension>
    <intension> eq(dist(fe[3],fr[3]),154) </intension>
    <intension> eq(dist(fe[4],fr[4]),154) </intension>
    <intension> eq(dist(fe[5],fr[5]),154) </intension>
    <intension> eq(dist(fe[6],fr[6]),154) </intension>
    <intension> eq(dist(fe[7],fr[7]),154) </intension>
    <intension> eq(dist(fe[8],fr[8]),154) </intension>
    <intension> eq(dist(fe[9],fr[9]),154) </intension>
    <intension> eq(dist(fe[10],fr[10]),154) </intension>
    <intension> eq(dist(fe[11],fr[11]),154) </intension>
    <intension> eq(dist(fe[12],fr[12]),154) </intension>
    <intension> eq(dist(fe[13],fr[13]),154) </intension>
    <intension> eq(dist(fe[14],fr[14]),154) </intension>
    <intension> eq(dist(fe[15],fr[15]),154) </intension>
    <intension> eq(dist(fe[16],fr[16]),154) </intension>
    <intension> eq(dist(fe[17],fr[17]),154) </intension>
    <intension> eq(dist(fe[18],fr[18]),154) </intension>
    <intension> eq(dist(fe[19],fr[19]),154) </intension>
    <intension> eq(dist(fe[20],fr[20]),154) </intension>
    <intension> eq(dist(fe[21],fr[21]),154) </intension>
    <intension> eq(dist(fe[22],fr[22]),154) </intension>
    <intension> eq(dist(fe[23],fr[23]),154) </intension>
    <intension> eq(dist(fe[24],fr[24]),154) </intension>
    <intension> eq(dist(fe[25],fr[25]),154) </intension>
    <intension> eq(dist(fe[26],fr[26]),154) </intension>
    <intension> eq(dist(fe[27],fr[27]),154) </intension>
    <intension> eq(dist(fe[28],fr[28]),154) </intension>
    <intension> eq(dist(fe[29],fr[29]),154) </intension>
    <intension> eq(dist(fe[30],fr[30]),154) </intension>
    <intension> eq(dist(fe[31],fr[31]),154) </intension>
    <intension> eq(dist(fe[32],fr[32]),154) </intension>
    <intension> eq(dist(fe[33],fr[33]),154) </intension>
    <intension> eq(dist(fe[34],fr[34]),154) </intension>
    <intension> eq(dist(fe[35],fr[35]),154) </intension>
    <intension> eq(dist(fe[36],fr[36]),154) </intension>
    <intension> eq(dist(fe[37],fr[37]),154) </intension>
    <intension> eq(dist(fe[38],fr[38]),154) </intension>
    <intension> eq(dist(fe[39],fr[39]),154) </intension>
    <intension> eq(dist(fe[40],fr[40]),154) </intension>
    <intension> eq(dist(fe[41],fr[41]),154) </intension>
    <intension> eq(dist(fe[42],fr[42]),154) </intension>
    <intension> eq(dist(fe[43],fr[43]),154) </intension>
    <intension> eq(dist(fe[44],fr[44]),154) </intension>
    <intension> eq(dist(fe[45],fr[45]),154) </intension>
    <intension> eq(dist(fe[46],fr[46]),154) </intension>
    <intension> eq(dist(fe[47],fr[47]),154) </intension>
    <intension> eq(dist(fe[48],fr[48]),154) </intension>
    <intension> eq(dist(fe[49],fr[49]),154) </intension>
    <intension> ge(dist(fe[1],fe[30]),30) </intension>
    <intension> ge(dist(fr[1],fr[30]),30) </intension>
    <intension> ge(dist(fe[1],fe[26]),20) </intension>
    <intension> ge(dist(fr[1],fr[26]),20) </intension>
    <intension> ge(dist(fe[1],fe[19]),20) </intension>
    <intension> ge(dist(fr[1],fr[19]),20) </intension>
    <intension> ge(dist(fe[1],fe[22]),20) </intension>
    <intension> ge(dist(fr[1],fr[22]),20) </intension>
    <intension> ge(dist(fe[2],fe[28]),40) </intension>
    <intension> ge(dist(fr[2],fr[28]),40) </intension>
    <intension> ge(dist(fe[3],fe[15]),20) </intension>
    <intension> ge(dist(fr[3],fr[15]),20) </intension>
    <intension> ge(dist(fe[3],fe[41]),30) </intension>
    <intension> ge(dist(fr[3],fr[41]),30) </intension>
    <intension> ge(dist(fe[4],fe[44]),30) </intension>
    <intension> ge(dist(fr[4],fr[44]),30) </intension>
    <intension> ge(dist(fe[5],fe[24]),50) </intension>
    <intension> ge(dist(fr[5],fr[24]),50) </intension>
    <intension> ge(dist(fe[6],fe[48]),50) </intension>
    <intension> ge(dist(fr[6],fr[48]),50) </intension>
    <intension> ge(dist(fe[6],fe[44]),50) </intension>
    <intension> ge(dist(fr[6],fr[44]),50) </intension>
    <intension> ge(dist(fe[6],fe[28]),30) </intension>
    <intension> ge(dist(fr[6],fr[28]),30) </intension>
    <intension> ge(dist(fe[8],fe[44]),20) </intension>
    <intension> ge(dist(fr[8],fr[44]),20) </intension>
    <intension> ge(dist(fe[9],fe[23]),20) </intension>
    <intension> ge(dist(fr[9],fr[23]),20) </intension>
    <intension> ge(dist(fe[10],fe[49]),50) </intension>
    <intension> ge(dist(fr[10],fr[49]),50) </intension>
    <intension> ge(dist(fe[10],fe[20]),50) </intension>
    <intension> ge(dist(fr[10],fr[20]),50) </intension>
    <intension> ge(dist(fe[11],fe[17]),40) </intension>
    <intension> ge(dist(fr[11],fr[17]),40) </intension>
    <intension> ge(dist(fe[12],fe[37]),20) </intension>
    <intension> ge(dist(fr[12],fr[37]),20) </intension>
    <intension> ge(dist(fe[12],fe[47]),50) </intension>
    <intension> ge(dist(fr[12],fr[47]),50) </intension>
    <intension> ge(dist(fe[13],fe[18]),40) </intension>
    <intension> ge(dist(fr[13],fr[18]),40) </intension>
    <intension> ge(dist(fe[14],fe[39]),50) </intension>
    <intension> ge(dist(fr[14],fr[39]),50) </intension>
    <intension> ge(dist(fe[15],fe[44]),30) </intension>
    <intension> ge(dist(fr[15],fr[44]),30) </intension>
    <intension> ge(dist(fe[16],fe[28]),40) </intension>
    <intension> ge(dist(fr[16],fr[28]),40) </intension>
    <intension> ge(dist(fe[17],fe[45]),30) </intension>
    <intension> ge(dist(fr[17],fr[45]),30) </intension>
    <intension> ge(dist(fe[18],fe[24]),20) </intension>
    <intension> ge(dist(fr[18],fr[24]),20) </intension>
    <intension> ge(dist(fe[18],fe[22]),30) </intension>
    <intension> ge(dist(fr[18],fr[22]),30) </intension>
    <intension> ge(dist(fe[18],fe[44]),20) </intension>
    <intension> ge(dist(fr[18],fr[44]),20) </intension>
    <intension> ge(dist(fe[18],fe[23]),40) </intension>
    <intension> ge(dist(fr[18],fr[23]),40) </intension>
    <intension> ge(dist(fe[19],fe[24]),30) </intension>
    <intension> ge(dist(fr[19],fr[24]),30) </intension>
    <intension> ge(dist(fe[19],fe[44]),20) </intension>
    <intension> ge(dist(fr[19],fr[44]),20) </intension>
    <intension> ge(dist(fe[20],fe[30]),40) </intension>
    <intension> ge(dist(fr[20],fr[30]),40) </intension>
    <intension> ge(dist(fe[21],fe[43]),30) </intension>
    <intension> ge(dist(fr[21],fr[43]),30) </intension>
    <intension> ge(dist(fe[21],fe[32]),20) </intension>
    <intension> ge(dist(fr[21],fr[32]),20) </intension>
    <intension> ge(dist(fe[21],fe[44]),50) </intension>
    <intension> ge(dist(fr[21],fr[44]),50) </intension>
    <intension> ge(dist(fe[22],fe[49]),30) </intension>
    <intension> ge(dist(fr[22],fr[49]),30) </intension>
    <intension> ge(dist(fe[23],fe[24]),20) </intension>
    <intension> ge(dist(fr[23],fr[24]),20) </intension>
    <intension> ge(dist(fe[23],fe[44]),20) </intension>
    <intension> ge(dist(fr[23],fr[44]),20) </intension>
    <intension> ge(dist(fe[24],fe[49]),30) </intension>
    <intension> ge(dist(fr[24],fr[49]),30) </intension>
    <intension> ge(dist(fe[25],fe[42]),40) </intension>
    <intension> ge(dist(fr[25],fr[42]),40) </intension>
    <intension> ge(dist(fe[25],fe[28]),20) </intension>
    <intension> ge(dist(fr[25],fr[28]),20) </intension>
    <intension> ge(dist(fe[27],fe[29]),30) </intension>
    <intension> ge(dist(fr[27],fr[29]),30) </intension>
    <intension> ge(dist(fe[27],fe[40]),30) </intension>
    <intension> ge(dist(fr[27],fr[40]),30) </intension>
    <intension> ge(dist(fe[27],fe[47]),40) </intension>
    <intension> ge(dist(fr[27],fr[47]),40) </intension>
    <intension> ge(dist(fe[28],fe[38]),40) </intension>
    <intension> ge(dist(fr[28],fr[38]),40) </intension>
    <intension> ge(dist(fe[28],fe[48]),50) </intension>
    <intension> ge(dist(fr[28],fr[48]),50) </intension>
    <intension> ge(dist(fe[31],fe[36]),40) </intension>
    <intension> ge(dist(fr[31],fr[36]),40) </intension>
    <intension> ge(dist(fe[34],fe[43]),50) </intension>
    <intension> ge(dist(fr[34],fr[43]),50) </intension>
    <intension> ge(dist(fe[34],fe[36]),30) </intension>
    <intension> ge(dist(fr[34],fr[36]),30) </intension>
    <intension> ge(dist(fe[34],fe[47]),40) </intension>
    <intension> ge(dist(fr[34],fr[47]),40) </intension>
    <intension> ge(dist(fe[35],fe[49]),50) </intension>
    <intension> ge(dist(fr[35],fr[49]),50) </intension>
    <intension> ge(dist(fe[42],fe[45]),40) </intension>
    <intension> ge(dist(fr[42],fr[45]),40) </intension>
    <intension> ge(dist(fe[45],fe[46]),30) </intension>
    <intension> ge(dist(fr[45],fr[46]),30) </intension>
    <nValues>
      <list> fe[2] fe[4] fe[7] fe[12] fe[33] fe[37] fe[47..48] fr[2] fr[4] fr[7] fr[12] fr[33] fr[37] fr[47..48] </list>
      <condition> (le,15) </condition>
    </nValues>
    <nValues>
      <list> fe[8] fe[10] fe[13] fe[18..19] fe[44] fr[8] fr[10] fr[13] fr[18..19] fr[44] </list>
      <condition> (le,11) </condition>
    </nValues>
    <nValues>
      <list> fe[1] fe[15..17] fe[25..26] fe[38] fe[42] fe[45..46] fr[1] fr[15..17] fr[25..26] fr[38] fr[42] fr[45..46] </list>
      <condition> (le,20) </condition>
    </nValues>
    <nValues>
      <list> fe[6] fe[14] fe[28] fe[32] fr[6] fr[14] fr[28] fr[32] </list>
      <condition> (le,6) </condition>
    </nValues>
    <nValues>
      <list> fe[0] fe[5] fe[9] fe[20] fe[22] fe[24] fe[30] fe[35] fe[49] fr[0] fr[5] fr[9] fr[20] fr[22] fr[24] fr[30] fr[35] fr[49] </list>
      <condition> (le,18) </condition>
    </nValues>
    <nValues>
      <list> fe[21] fe[27] fe[29] fe[31] fe[34] fe[36] fe[39..40] fe[43] fr[21] fr[27] fr[29] fr[31] fr[34] fr[36] fr[39..40] fr[43] </list>
      <condition> (le,16) </condition>
    </nValues>
    <nValues>
      <list> fe[3] fe[11] fe[23] fe[41] fr[3] fr[11] fr[23] fr[41] </list>
      <condition> (le,8) </condition>
    </nValues>
  </constraints>
  <objectives>
    <minimize type="nValues"> fe[] fr[] </minimize>
  </objectives>
</instance>
